0000000000000000
0000000000000000
0000111000000000
0001000110000000
0011000011000000
0110000001100000
0000000000110000
0000001110010000
0000110011010000
0001100000110000
0010000000010000
0010000000010000
0010000000110000
0010000001100000
0000000000000000
0000000000000000